
Log started (V11.0.0) Thu Apr 24 07:02:22 2008

Tried aggregator 1 time.
Reduced MIP has 540 rows, 20001 columns, and 40040 nonzeros.
Presolve time =    0.14 sec.
Clique table members: 500.
MIP emphasis: balance optimality and feasibility.
MIP search method: dynamic search.
Parallel mode: none, using 1 thread.
Root relaxation solution time =    1.25 sec.

        Nodes                                         Cuts/
   Node  Left     Objective  IInf  Best Integer     Best Node    ItCnt     Gap

*     0+    0                        74300.0000     1275.6117      894   98.28%
*     0+    0                         1425.0000     1275.6117      894   10.48%
      0     0     1276.2547    79     1425.0000      Fract: 6      934   10.44%
*     0+    0                         1336.0000     1276.2547      934    4.47%
      0     0     1276.4746    82     1336.0000     1276.4746      975    4.46%
      0     0     1276.8820    89     1336.0000     Covers: 2     1053    4.43%
*     0+    0                         1333.0000     1276.8820     1053    4.21%
      0     0     1277.1821    88     1333.0000     Covers: 1     1111    4.19%
      0     0     1277.1848    90     1333.0000     Covers: 1     1123    4.19%
      0     0     1277.1943    94     1333.0000     Covers: 5     1142    4.19%
*     0+    0                         1331.0000     1277.1943     1142    4.04%
*     0+    0                         1330.0000     1277.1943     1142    3.97%
*     0+    0                         1329.0000     1277.1943     1142    3.90%
      0     2     1277.1943    94     1329.0000     1277.1943     1142    3.90%
    100   101     1278.0000    80     1329.0000     1277.2084     3203    3.90%
*   120+  118                         1328.0000     1277.2084     3926    3.82%
*   140+  134                         1327.0000     1277.2084     4553    3.75%
*   200+  188                         1326.0000     1277.2084     6392    3.68%
    200   190     1279.0000    73     1326.0000     1277.2084     6392    3.68%
    300   280     1280.0000    79     1326.0000     1277.2084    10106    3.68%
*   400+  369                         1325.0000     1277.2084    14468    3.61%
*   400+  369                         1324.0000     1277.2084    14468    3.53%
    400   371     1281.0000    79     1324.0000     1277.2084    14468    3.53%
    500   450     1282.0000    77     1324.0000     1277.2084    21278    3.53%
    600   483     1287.0000    92     1324.0000     1285.0000    31082    2.95%
    700   506     1287.0000    99     1324.0000     1285.0000    38133    2.95%
    800   527     1287.0000    93     1324.0000     1285.0000    46850    2.95%
    900   544     1288.0000    76     1324.0000     1285.0000    55290    2.95%
   1000   550     1289.0000    89     1324.0000     1285.0000    67051    2.95%
Elapsed time = 243.14 sec. (tree size =  6.92 MB, solutions = 12)
   1100   559     1290.0000    72     1324.0000     1285.0000    75179    2.95%
   1200   630     1292.0000    69     1324.0000     1285.0000    79061    2.95%
   1300   715     1294.0000    68     1324.0000     1285.0000    82880    2.95%
   1400   795     1295.0000    72     1324.0000     1285.0000    87577    2.95%
   1500   864     1296.9219    77     1324.0000     1285.0000    94049    2.95%
   1600   937     1298.5538    72     1324.0000     1285.0000   100373    2.95%
   1700  1011     1299.0000    73     1324.0000     1285.0000   107724    2.95%
   1800  1093     1302.0000    70     1324.0000     1285.0000   114319    2.95%
   1900  1173     1303.2893    69     1324.0000     1285.0000   122535    2.95%
   2000  1245     1303.0000    70     1324.0000     1285.0000   131058    2.95%
Elapsed time = 356.16 sec. (tree size = 17.13 MB, solutions = 12)
   2100  1317     1304.0000    67     1324.0000     1285.0000   140656    2.95%
   2200  1404     1305.8625    65     1324.0000     1285.0000   144621    2.95%
   2300  1470     1307.5937    64     1324.0000     1285.0000   147645    2.95%
   2400  1542     1308.1853    69     1324.0000     1285.0000   150284    2.95%
   2500  1609     1308.4912    66     1324.0000     1285.0000   152701    2.95%
   2600  1678     1312.0000    61     1324.0000     1285.0000   155380    2.95%
   2700  1749     1315.1925    61     1324.0000     1285.0000   158357    2.95%
   2800  1819     1317.2854    60     1324.0000     1285.0000   161612    2.95%
   2900  1882     1317.0000    59     1324.0000     1285.0000   164887    2.95%
   3000  1944     1321.0000    56     1324.0000     1285.0000   167702    2.95%
Elapsed time = 423.91 sec. (tree size = 27.35 MB, solutions = 12)
   3100  2014     1285.0000   124     1324.0000     1285.0000   175591    2.95%
   3200  2112     1286.0000    83     1324.0000     1285.0000   179632    2.95%
   3300  2212     1286.0000    96     1324.0000     1285.0000   183564    2.95%
   3400  2311     1286.0000   106     1324.0000     1285.0000   191844    2.95%
   3500  2401     1287.0000    72     1324.0000     1285.0000   205224    2.95%
   3600  2501     1287.0000    85     1324.0000     1285.0000   209027    2.95%
   3700  2597     1288.0000    95     1324.0000     1285.0000   220671    2.95%
   3800  2692     1289.0000    75     1324.0000     1285.0000   230285    2.95%
   3900  2785     1289.0000    83     1324.0000     1285.0000   246401    2.95%
   4000  2855     1292.2912    75     1324.0000     1285.0000   250190    2.95%
Elapsed time = 597.25 sec. (tree size = 39.95 MB, solutions = 12)
   4100  2920     1292.4939    74     1324.0000     1285.0000   254466    2.95%
   4200  2984     1293.5988    72     1324.0000     1285.0000   259702    2.95%
   4300  3056     1293.0000    71     1324.0000     1285.0000   267036    2.95%
   4400  3119     1293.0000    72     1324.0000     1285.0000   278809    2.95%
   4500  3187     1296.4397    69     1324.0000     1285.0000   284646    2.95%
   4600  3272     1297.0000    65     1324.0000     1285.0000   286643    2.95%
   4700  3353     1298.0000    63     1324.0000     1285.0000   288599    2.95%
   4800  3425     1299.0000    65     1324.0000     1285.0000   291382    2.95%
   4900  3495     1300.3873    71     1324.0000     1285.0000   294766    2.95%
   5000  3572     1300.0000    63     1324.0000     1285.0000   297766    2.95%
Elapsed time = 691.03 sec. (tree size = 50.65 MB, solutions = 12)
   5100  3648     1300.0000    67     1324.0000     1285.0000   299691    2.95%
   5200  3723     1304.0000    59     1324.0000     1285.0000   301994    2.95%
   5300  3792     1305.0000    61     1324.0000     1285.0000   305201    2.95%
   5400  3865     1306.0000    65     1324.0000     1285.0000   308027    2.95%
   5500  3932     1307.0000    61     1324.0000     1285.0000   311272    2.95%
   5600  4002     1309.0000    55     1324.0000     1285.0000   313678    2.95%
   5700  4074     1311.0000    57     1324.0000     1285.0000   316172    2.95%
   5800  4149     1312.0000    56     1324.0000     1285.0000   318656    2.95%
   5900  4223     1313.0000    62     1324.0000     1285.0000   321760    2.95%
   6000  4286     1322.7662    54     1324.0000     1285.0000   324096    2.95%
Elapsed time = 751.14 sec. (tree size = 61.38 MB, solutions = 12)
   6100  4359     1286.0000   141     1324.0000     1285.0000   400623    2.95%
   6200  4458     1286.0000   157     1324.0000     1285.0000   415880    2.95%
   6300  4548     1287.0000    90     1324.0000     1285.0000   426907    2.95%
   6400  4646     1287.0000   104     1324.0000     1285.0000   435049    2.95%
   6500  4737     1288.0000    92     1324.0000     1285.0000   447113    2.95%
   6600  4836     1288.0000    90     1324.0000     1285.0000   453446    2.95%
   6700  4928     1289.0000    91     1324.0000     1285.0000   466506    2.95%
   6800  5016     1291.0000    71     1324.0000     1285.0000   482338    2.95%
   6900  5096     1292.0000    68     1324.0000     1285.0000   487918    2.95%
   7000  5177     1295.0882    76     1324.0000     1285.0000   492649    2.95%
Elapsed time = 1214.41 sec. (tree size = 77.46 MB, solutions = 12)
   7100  5256     1321.0000    44     1324.0000     1285.0000   497311    2.95%
   7200  5340     1319.0000    44     1324.0000     1285.0000   502137    2.95%
   7300  5417     1298.0000    75     1324.0000     1285.0000   509298    2.95%
   7400  5505     1301.0000    78     1324.0000     1285.0000   517976    2.95%
   7500  5583     1302.9143    75     1324.0000     1285.0000   521948    2.95%
   7600  5670     1303.0000    75     1324.0000     1285.0000   525482    2.95%
   7700  5751     1305.0000    71     1324.0000     1285.0000   529357    2.95%
   7800  5825     1320.0000    54     1324.0000     1285.0000   532820    2.95%
   7900  5890     1307.5248    72     1324.0000     1285.0000   537301    2.95%
   8000  5959     1312.0000    64     1324.0000     1285.0000   540462    2.95%
Elapsed time = 1338.02 sec. (tree size = 92.45 MB, solutions = 12)
   8100  6024     1314.0000    63     1324.0000     1285.0000   544441    2.95%
   8200  6095     1316.0000    62     1324.0000     1285.0000   547772    2.95%
   8300  6151    infeasible           1324.0000     1285.0000   551510    2.95%
   8400  6223     1286.0000   154     1324.0000     1285.0000   636790    2.95%
   8500  6323     1286.0000   184     1324.0000     1285.0000   653966    2.95%
   8600  6422     1286.0000   168     1324.0000     1285.0000   684365    2.95%
   8700  6521     1287.0000    92     1324.0000     1285.0000   698481    2.95%
   8800  6620     1286.0000   207     1324.0000     1285.0000   733517    2.95%
   8900  6719     1287.0000    98     1324.0000     1285.0000   743426    2.95%
   9000  6817     1287.0000   163     1324.0000     1285.0000   768159    2.95%
Elapsed time = 1951.42 sec. (tree size = 108.47 MB, solutions = 12)
   9100  6916     1288.0000   109     1324.0000     1285.0000   784143    2.95%
   9200  7010     1287.0000   131     1324.0000     1285.0000   826935    2.95%
   9300  7110     1287.0000    95     1324.0000     1285.0000   830580    2.95%
   9400  7209     1286.0000   199     1324.0000     1285.0000   858320    2.95%
   9500  7304     1287.0000   100     1324.0000     1285.0000   872866    2.95%
   9600  7402     1287.0000   143     1324.0000     1285.0000   899647    2.95%
   9700  7501     1288.0000    93     1324.0000     1285.0000   914177    2.95%
   9800  7600     1286.0000   193     1324.0000     1285.0000   941090    2.95%
   9900  7699     1287.0000    95     1324.0000     1285.0000   950775    2.95%
  10000  7797     1286.0000   243     1324.0000     1285.0000   991950    2.95%
Elapsed time = 2519.08 sec. (tree size = 126.89 MB, solutions = 12)
  10100  7894     1287.0000    97     1324.0000     1285.0000  1008450    2.95%
  10200  7993     1286.0000   182     1324.0000     1285.0000  1032306    2.95%
  10300  8092     1287.0000   121     1324.0000     1285.0000  1041782    2.95%
  10400  8188     1287.0000   121     1324.0000     1285.0000  1074221    2.95%
  10500  8288     1287.0000   123     1324.0000     1285.0000  1078584    2.95%
  10600  8386     1287.0000    85     1324.0000     1285.0000  1103938    2.95%
  10700  8486     1287.0000   111     1324.0000     1285.0000  1109064    2.95%
  10800  8583     1287.0000   102     1324.0000     1285.0000  1141514    2.95%
  10900  8683     1287.0000   108     1324.0000     1285.0000  1146933    2.95%
  11000  8781     1287.0000   109     1324.0000     1285.0000  1174176    2.95%
Elapsed time = 2997.86 sec. (tree size = 145.70 MB, solutions = 12)
Nodefile size = 18.27 MB (10.12 MB after compression)
  11100  8881     1287.0000   127     1324.0000     1285.0000  1178047    2.95%
  11200  8979     1287.0000   100     1324.0000     1285.0000  1201943    2.95%
  11300  9079     1287.0000   147     1324.0000     1285.0000  1211612    2.95%
  11400  9178     1286.0000   219     1324.0000     1285.0000  1247049    2.95%
  11500  9274     1287.0000   114     1324.0000     1285.0000  1259839    2.95%
  11600  9369     1287.0000   142     1324.0000     1285.0000  1314136    2.95%
  11700  9469     1287.0000   102     1324.0000     1285.0000  1319551    2.95%
  11800  9567     1287.0000   105     1324.0000     1285.0000  1344143    2.95%
  11900  9667     1287.0000   109     1324.0000     1285.0000  1348952    2.95%
  12000  9765     1287.0000   105     1324.0000     1285.0000  1378312    2.95%
Elapsed time = 3530.48 sec. (tree size = 164.93 MB, solutions = 12)
Nodefile size = 37.16 MB (20.40 MB after compression)
  12100  9865     1287.0000   119     1324.0000     1285.0000  1382352    2.95%
  12200  9964     1286.0000   210     1324.0000     1285.0000  1416016    2.95%
  12300 10063     1287.0000   115     1324.0000     1285.0000  1420967    2.95%
  12400 10162     1286.0000   216     1324.0000     1285.0000  1454163    2.95%
  12500 10254     1287.0000   106     1324.0000     1285.0000  1483561    2.95%
  12600 10353     1286.0000   170     1324.0000     1285.0000  1507729    2.95%
  12700 10452     1287.0000   100     1324.0000     1285.0000  1529461    2.95%
  12800 10550     1287.0000   106     1324.0000     1285.0000  1553537    2.95%
  12900 10650     1287.0000   134     1324.0000     1285.0000  1561489    2.95%
  13000 10748     1287.0000   104     1324.0000     1285.0000  1578386    2.95%
Elapsed time = 4099.02 sec. (tree size = 184.36 MB, solutions = 12)
Nodefile size = 57.11 MB (30.76 MB after compression)
  13100 10848     1287.0000   146     1324.0000     1285.0000  1586683    2.95%
  13200 10945     1287.0000   119     1324.0000     1285.0000  1633538    2.95%
  13300 11045     1287.0000   109     1324.0000     1285.0000  1639358    2.95%
  13400 11140     1287.0000   190     1324.0000     1285.0000  1692756    2.95%
  13500 11236     1287.0000   131     1324.0000     1285.0000  1705088    2.95%
  13600 11334     1287.0000   110     1324.0000     1285.0000  1734984    2.95%
  13700 11434     1287.0000   126     1324.0000     1285.0000  1744263    2.95%
  13800 11532     1287.0000   106     1324.0000     1285.0000  1772425    2.95%
  13900 11632     1287.0000   147     1324.0000     1285.0000  1782019    2.95%
  14000 11731     1286.0000   185     1324.0000     1285.0000  1813604    2.95%
Elapsed time = 4751.06 sec. (tree size = 204.09 MB, solutions = 12)
Nodefile size = 76.27 MB (41.32 MB after compression)
  14100 11829     1287.0000   103     1324.0000     1285.0000  1836698    2.95%
  14200 11928     1286.0000   204     1324.0000     1285.0000  1864853    2.95%
  14300 12027     1287.0000   186     1324.0000     1285.0000  1886081    2.95%
  14400 12124     1286.0000   161     1324.0000     1285.0000  1920081    2.95%
  14500 12224     1286.0000   163     1324.0000     1285.0000  1934308    2.95%
  14600 12322     1287.0000   168     1324.0000     1285.0000  1979855    2.95%
  14700 12422     1287.0000   129     1324.0000     1285.0000  1985154    2.95%
  14800 12519     1286.0000   122     1324.0000     1285.0000  2034445    2.95%
  14900 12619     1286.0000   132     1324.0000     1285.0000  2047210    2.95%
  15000 12717     1287.0000   132     1324.0000     1285.0000  2077799    2.95%
Elapsed time = 5501.45 sec. (tree size = 224.06 MB, solutions = 12)
Nodefile size = 96.84 MB (57.27 MB after compression)
  15100 12817     1287.0000   114     1324.0000     1285.0000  2085453    2.95%
  15200 12915     1287.0000   125     1324.0000     1285.0000  2121067    2.95%
  15300 13013     1288.0000   161     1324.0000     1285.0000  2128422    2.95%
  15400 13110     1287.0000   171     1324.0000     1285.0000  2169076    2.95%
  15500 13210     1287.0000   156     1324.0000     1285.0000  2192763    2.95%
  15600 13309     1286.0000   171     1324.0000     1285.0000  2224130    2.95%
  15700 13408     1287.0000   108     1324.0000     1285.0000  2249377    2.95%
  15800 13507     1286.0000   216     1324.0000     1285.0000  2287857    2.95%
  15900 13606     1287.0000   160     1324.0000     1285.0000  2297550    2.95%
  16000 13703     1287.0000   192     1324.0000     1285.0000  2346485    2.95%
Elapsed time = 6246.36 sec. (tree size = 244.41 MB, solutions = 12)
Nodefile size = 116.62 MB (72.95 MB after compression)
  16100 13803     1287.0000   156     1324.0000     1285.0000  2353472    2.95%
  16200 13902     1286.0000   229     1324.0000     1285.0000  2388826    2.95%
  16300 14000     1288.0000   103     1324.0000     1285.0000  2409414    2.95%
  16400 14096     1286.0000   122     1324.0000     1285.0000  2463217    2.95%
  16500 14195     1286.0000   162     1324.0000     1285.0000  2482563    2.95%
  16600 14294     1286.0000   159     1324.0000     1285.0000  2522946    2.95%
  16700 14393     1287.0000   111     1324.0000     1285.0000  2539494    2.95%
  16800 14492     1286.0000   165     1324.0000     1285.0000  2575304    2.95%
  16900 14591     1287.0000   103     1324.0000     1285.0000  2591218    2.95%
  17000 14690     1286.0000   174     1324.0000     1285.0000  2624263    2.95%
Elapsed time = 7048.75 sec. (tree size = 265.15 MB, solutions = 12)
Nodefile size = 137.35 MB (89.12 MB after compression)
  17100 14789     1287.0000   123     1324.0000     1285.0000  2648069    2.95%
  17200 14888     1286.0000   170     1324.0000     1285.0000  2677728    2.95%

Cover cuts applied:  832
Mixed integer rounding cuts applied:  2
Gomory fractional cuts applied:  19

Solution pool: 12 solutions saved.

MIP - Time limit exceeded, integer feasible:  Objective = 1.3240000000e+003
Current MIP best bound = 1.2850000000e+003 (gap = 39, 2.95%)
Solution time = 7200.06 sec.  Iterations = 2679260  Nodes = 17211 (14898)


Incumbent solution
Variable Name           Solution Value
Cmax                       1324.000000
X_1_17                        1.000000
X_2_33                        1.000000
X_3_16                        1.000000
X_4_32                        1.000000
X_5_23                        1.000000
X_6_28                        1.000000
X_7_37                        1.000000
X_8_12                        1.000000
X_9_12                        1.000000
X_10_30                       1.000000
X_11_26                       1.000000
X_12_6                        1.000000
X_13_31                       1.000000
X_14_29                       1.000000
X_15_31                       1.000000
X_16_2                        1.000000
X_17_21                       1.000000
X_18_39                       1.000000
X_19_34                       1.000000
X_20_3                        1.000000
X_21_19                       1.000000
X_22_9                        1.000000
X_23_12                       1.000000
X_24_29                       1.000000
X_25_32                       1.000000
X_26_11                       1.000000
X_27_33                       1.000000
X_28_34                       1.000000
X_29_18                       1.000000
X_30_1                        1.000000
X_31_36                       1.000000
X_32_38                       1.000000
X_33_14                       1.000000
X_34_39                       1.000000
X_35_19                       1.000000
X_36_33                       1.000000
X_37_12                       1.000000
X_38_35                       1.000000
X_39_26                       1.000000
X_40_26                       1.000000
X_41_21                       1.000000
X_42_24                       1.000000
X_43_19                       1.000000
X_44_18                       1.000000
X_45_14                       1.000000
X_46_34                       1.000000
X_47_4                        1.000000
X_48_6                        1.000000
X_49_6                        1.000000
X_50_40                       1.000000
X_51_33                       1.000000
X_52_37                       1.000000
X_53_26                       1.000000
X_54_8                        1.000000
X_55_37                       1.000000
X_56_25                       1.000000
X_57_25                       1.000000
X_58_5                        1.000000
X_59_14                       1.000000
X_60_22                       1.000000
X_61_2                        1.000000
X_62_20                       1.000000
X_63_14                       1.000000
X_64_27                       1.000000
X_65_40                       1.000000
X_66_20                       1.000000
X_67_3                        1.000000
X_68_3                        1.000000
X_69_2                        1.000000
X_70_39                       1.000000
X_71_3                        1.000000
X_72_38                       1.000000
X_73_5                        1.000000
X_74_21                       1.000000
X_75_22                       1.000000
X_76_6                        1.000000
X_77_15                       1.000000
X_78_4                        1.000000
X_79_12                       1.000000
X_80_8                        1.000000
X_81_4                        1.000000
X_82_4                        1.000000
X_83_3                        1.000000
X_84_6                        1.000000
X_85_21                       1.000000
X_86_9                        1.000000
X_87_18                       1.000000
X_88_13                       1.000000
X_89_7                        1.000000
X_90_31                       1.000000
X_91_6                        1.000000
X_92_25                       1.000000
X_93_4                        1.000000
X_94_23                       1.000000
X_95_30                       1.000000
X_96_20                       1.000000
X_97_32                       1.000000
X_98_10                       1.000000
X_99_14                       1.000000
X_100_26                      1.000000
X_101_14                      1.000000
X_102_17                      1.000000
X_103_28                      1.000000
X_104_38                      1.000000
X_105_3                       1.000000
X_106_36                      1.000000
X_107_1                       1.000000
X_108_5                       1.000000
X_109_30                      1.000000
X_110_3                       1.000000
X_111_34                      1.000000
X_112_12                      1.000000
X_113_40                      1.000000
X_114_19                      1.000000
X_115_8                       1.000000
X_116_29                      1.000000
X_117_33                      1.000000
X_118_6                       1.000000
X_119_13                      1.000000
X_120_29                      1.000000
X_121_8                       1.000000
X_122_36                      1.000000
X_123_5                       1.000000
X_124_15                      1.000000
X_125_39                      1.000000
X_126_39                      1.000000
X_127_25                      1.000000
X_128_11                      1.000000
X_129_40                      1.000000
X_130_8                       1.000000
X_131_31                      1.000000
X_132_5                       1.000000
X_133_35                      1.000000
X_134_32                      1.000000
X_135_40                      1.000000
X_136_14                      1.000000
X_137_17                      1.000000
X_138_3                       1.000000
X_139_4                       1.000000
X_140_26                      1.000000
X_141_15                      1.000000
X_142_13                      1.000000
X_143_16                      1.000000
X_144_16                      1.000000
X_145_38                      1.000000
X_146_27                      1.000000
X_147_1                       1.000000
X_148_28                      1.000000
X_149_6                       1.000000
X_150_36                      1.000000
X_151_9                       1.000000
X_152_7                       1.000000
X_153_26                      1.000000
X_154_30                      1.000000
X_155_24                      1.000000
X_156_7                       1.000000
X_157_40                      1.000000
X_158_23                      1.000000
X_159_4                       1.000000
X_160_39                      1.000000
X_161_36                      1.000000
X_162_40                      1.000000
X_163_1                       1.000000
X_164_24                      1.000000
X_165_10                      1.000000
X_166_22                      1.000000
X_167_17                      1.000000
X_168_10                      1.000000
X_169_8                       1.000000
X_170_40                      1.000000
X_171_16                      1.000000
X_172_4                       1.000000
X_173_27                      1.000000
X_174_10                      1.000000
X_175_19                      1.000000
X_176_33                      1.000000
X_177_29                      1.000000
X_178_34                      1.000000
X_179_12                      1.000000
X_180_10                      1.000000
X_181_8                       1.000000
X_182_28                      1.000000
X_183_18                      1.000000
X_184_5                       1.000000
X_185_26                      1.000000
X_186_1                       1.000000
X_187_38                      1.000000
X_188_29                      1.000000
X_189_36                      1.000000
X_190_20                      1.000000
X_191_9                       1.000000
X_192_15                      1.000000
X_193_34                      1.000000
X_194_15                      1.000000
X_195_3                       1.000000
X_196_28                      1.000000
X_197_35                      1.000000
X_198_22                      1.000000
X_199_25                      1.000000
X_200_18                      1.000000
X_201_10                      1.000000
X_202_32                      1.000000
X_203_17                      1.000000
X_204_15                      1.000000
X_205_24                      1.000000
X_206_25                      1.000000
X_207_14                      1.000000
X_208_36                      1.000000
X_209_39                      1.000000
X_210_5                       1.000000
X_211_30                      1.000000
X_212_12                      1.000000
X_213_35                      1.000000
X_214_20                      1.000000
X_215_24                      1.000000
X_216_23                      1.000000
X_217_35                      1.000000
X_218_17                      1.000000
X_219_11                      1.000000
X_220_13                      1.000000
X_221_23                      1.000000
X_222_2                       1.000000
X_223_24                      1.000000
X_224_21                      1.000000
X_225_24                      1.000000
X_226_16                      1.000000
X_227_33                      1.000000
X_228_33                      1.000000
X_229_20                      1.000000
X_230_29                      1.000000
X_231_34                      1.000000
X_232_25                      1.000000
X_233_28                      1.000000
X_234_16                      1.000000
X_235_36                      1.000000
X_236_20                      1.000000
X_237_38                      1.000000
X_238_27                      1.000000
X_239_4                       1.000000
X_240_27                      1.000000
X_241_27                      1.000000
X_242_30                      1.000000
X_243_1                       1.000000
X_244_31                      1.000000
X_245_8                       1.000000
X_246_1                       1.000000
X_247_40                      1.000000
X_248_32                      1.000000
X_249_13                      1.000000
X_250_1                       1.000000
X_251_1                       1.000000
X_252_21                      1.000000
X_253_28                      1.000000
X_254_19                      1.000000
X_255_18                      1.000000
X_256_20                      1.000000
X_257_33                      1.000000
X_258_32                      1.000000
X_259_9                       1.000000
X_260_10                      1.000000
X_261_30                      1.000000
X_262_7                       1.000000
X_263_27                      1.000000
X_264_2                       1.000000
X_265_19                      1.000000
X_266_19                      1.000000
X_267_29                      1.000000
X_268_25                      1.000000
X_269_18                      1.000000
X_270_35                      1.000000
X_271_30                      1.000000
X_272_11                      1.000000
X_273_10                      1.000000
X_274_7                       1.000000
X_275_25                      1.000000
X_276_10                      1.000000
X_277_13                      1.000000
X_278_9                       1.000000
X_279_2                       1.000000
X_280_30                      1.000000
X_281_36                      1.000000
X_282_35                      1.000000
X_283_32                      1.000000
X_284_8                       1.000000
X_285_4                       1.000000
X_286_39                      1.000000
X_287_17                      1.000000
X_288_26                      1.000000
X_289_40                      1.000000
X_290_31                      1.000000
X_291_24                      1.000000
X_292_17                      1.000000
X_293_16                      1.000000
X_294_20                      1.000000
X_295_11                      1.000000
X_296_22                      1.000000
X_297_4                       1.000000
X_298_13                      1.000000
X_299_6                       1.000000
X_300_35                      1.000000
X_301_35                      1.000000
X_302_38                      1.000000
X_303_40                      1.000000
X_304_26                      1.000000
X_305_7                       1.000000
X_306_27                      1.000000
X_307_24                      1.000000
X_308_11                      1.000000
X_309_17                      1.000000
X_310_22                      1.000000
X_311_32                      1.000000
X_312_15                      1.000000
X_313_40                      1.000000
X_314_27                      1.000000
X_315_37                      1.000000
X_316_37                      1.000000
X_317_35                      1.000000
X_318_16                      1.000000
X_319_36                      1.000000
X_320_31                      1.000000
X_321_7                       1.000000
X_322_27                      1.000000
X_323_33                      1.000000
X_324_5                       1.000000
X_325_25                      1.000000
X_326_2                       1.000000
X_327_34                      1.000000
X_328_32                      1.000000
X_329_11                      1.000000
X_330_31                      1.000000
X_331_37                      1.000000
X_332_32                      1.000000
X_333_22                      1.000000
X_334_40                      1.000000
X_335_35                      1.000000
X_336_29                      1.000000
X_337_12                      1.000000
X_338_39                      1.000000
X_339_19                      1.000000
X_340_16                      1.000000
X_341_14                      1.000000
X_342_8                       1.000000
X_343_15                      1.000000
X_344_28                      1.000000
X_345_39                      1.000000
X_346_15                      1.000000
X_347_28                      1.000000
X_348_11                      1.000000
X_349_13                      1.000000
X_350_3                       1.000000
X_351_26                      1.000000
X_352_25                      1.000000
X_353_34                      1.000000
X_354_18                      1.000000
X_355_21                      1.000000
X_356_6                       1.000000
X_357_38                      1.000000
X_358_39                      1.000000
X_359_5                       1.000000
X_360_28                      1.000000
X_361_9                       1.000000
X_362_18                      1.000000
X_363_11                      1.000000
X_364_7                       1.000000
X_365_9                       1.000000
X_366_22                      1.000000
X_367_13                      1.000000
X_368_14                      1.000000
X_369_9                       1.000000
X_370_38                      1.000000
X_371_12                      1.000000
X_372_7                       1.000000
X_373_23                      1.000000
X_374_22                      1.000000
X_375_17                      1.000000
X_376_19                      1.000000
X_377_23                      1.000000
X_378_10                      1.000000
X_379_33                      1.000000
X_380_2                       1.000000
X_381_19                      1.000000
X_382_5                       1.000000
X_383_12                      1.000000
X_384_27                      1.000000
X_385_31                      1.000000
X_386_23                      1.000000
X_387_22                      1.000000
X_388_24                      1.000000
X_389_1                       1.000000
X_390_18                      1.000000
X_391_13                      1.000000
X_392_22                      1.000000
X_393_9                       1.000000
X_394_9                       1.000000
X_395_33                      1.000000
X_396_31                      1.000000
X_397_28                      1.000000
X_398_39                      1.000000
X_399_17                      1.000000
X_400_37                      1.000000
X_401_26                      1.000000
X_402_11                      1.000000
X_403_7                       1.000000
X_404_21                      1.000000
X_405_20                      1.000000
X_406_15                      1.000000
X_407_16                      1.000000
X_408_23                      1.000000
X_409_5                       1.000000
X_410_28                      1.000000
X_411_27                      1.000000
X_412_5                       1.000000
X_413_2                       1.000000
X_414_14                      1.000000
X_415_14                      1.000000
X_416_11                      1.000000
X_417_17                      1.000000
X_418_8                       1.000000
X_419_6                       1.000000
X_420_9                       1.000000
X_421_11                      1.000000
X_422_2                       1.000000
X_423_9                       1.000000
X_424_34                      1.000000
X_425_7                       1.000000
X_426_37                      1.000000
X_427_24                      1.000000
X_428_38                      1.000000
X_429_21                      1.000000
X_430_35                      1.000000
X_431_13                      1.000000
X_432_11                      1.000000
X_433_20                      1.000000
X_434_36                      1.000000
X_435_25                      1.000000
X_436_23                      1.000000
X_437_31                      1.000000
X_438_31                      1.000000
X_439_18                      1.000000
X_440_21                      1.000000
X_441_7                       1.000000
X_442_10                      1.000000
X_443_10                      1.000000
X_444_19                      1.000000
X_445_33                      1.000000
X_446_21                      1.000000
X_447_15                      1.000000
X_448_13                      1.000000
X_449_29                      1.000000
X_450_35                      1.000000
X_451_36                      1.000000
X_452_32                      1.000000
X_453_16                      1.000000
X_454_37                      1.000000
X_455_34                      1.000000
X_456_39                      1.000000
X_457_3                       1.000000
X_458_28                      1.000000
X_459_38                      1.000000
X_460_30                      1.000000
X_461_13                      1.000000
X_462_31                      1.000000
X_463_22                      1.000000
X_464_2                       1.000000
X_465_17                      1.000000
X_466_7                       1.000000
X_467_37                      1.000000
X_468_5                       1.000000
X_469_4                       1.000000
X_470_18                      1.000000
X_471_1                       1.000000
X_472_23                      1.000000
X_473_2                       1.000000
X_474_6                       1.000000
X_475_29                      1.000000
X_476_3                       1.000000
X_477_8                       1.000000
X_478_21                      1.000000
X_479_34                      1.000000
X_480_19                      1.000000
X_481_15                      1.000000
X_482_16                      1.000000
X_483_1                       1.000000
X_484_30                      1.000000
X_485_38                      1.000000
X_486_30                      1.000000
X_487_20                      1.000000
X_488_37                      1.000000
X_489_27                      1.000000
X_490_23                      1.000000
X_491_12                      1.000000
X_492_25                      1.000000
X_493_24                      1.000000
X_494_37                      1.000000
X_495_24                      1.000000
X_496_14                      1.000000
X_497_29                      1.000000
X_498_36                      1.000000
X_499_38                      1.000000
X_500_16                      1.000000
All other variables in the range 1-20001 are 0.
